c Reduced graph for r17 generated by Cyril Grelier
p edge 212 2378
e 1 2
e 1 3
e 1 4
e 1 5
e 1 6
e 1 11
e 1 14
e 1 15
e 1 16
e 1 17
e 1 18
e 1 37
e 1 38
e 1 39
e 1 42
e 1 45
e 1 46
e 1 55
e 1 56
e 1 58
e 1 62
e 1 71
e 1 81
e 1 86
e 1 114
e 1 135
e 1 164
e 1 178
e 2 3
e 2 4
e 2 7
e 2 8
e 2 11
e 2 19
e 2 20
e 2 21
e 2 22
e 2 23
e 2 39
e 2 40
e 2 41
e 2 42
e 2 45
e 2 46
e 2 58
e 2 59
e 2 60
e 2 61
e 2 62
e 2 71
e 2 86
e 2 89
e 2 114
e 2 145
e 2 164
e 3 4
e 3 9
e 3 10
e 3 11
e 3 24
e 3 25
e 3 26
e 3 27
e 3 28
e 3 29
e 3 39
e 3 42
e 3 43
e 3 44
e 3 45
e 3 46
e 3 58
e 3 62
e 3 64
e 3 65
e 3 66
e 3 71
e 3 86
e 3 114
e 3 164
e 3 191
e 4 11
e 4 12
e 4 13
e 4 32
e 4 33
e 4 34
e 4 35
e 4 36
e 4 39
e 4 42
e 4 45
e 4 46
e 4 52
e 4 58
e 4 62
e 4 71
e 4 73
e 4 74
e 4 75
e 4 86
e 4 106
e 4 114
e 4 152
e 4 164
e 4 193
e 5 6
e 5 7
e 5 9
e 5 12
e 5 14
e 5 15
e 5 16
e 5 17
e 5 18
e 5 30
e 5 37
e 5 38
e 5 53
e 5 55
e 5 56
e 5 67
e 5 69
e 5 81
e 5 87
e 5 90
e 5 103
e 5 111
e 5 112
e 5 135
e 5 165
e 5 178
e 6 8
e 6 10
e 6 13
e 6 14
e 6 15
e 6 16
e 6 17
e 6 18
e 6 31
e 6 37
e 6 38
e 6 54
e 6 55
e 6 56
e 6 57
e 6 63
e 6 68
e 6 70
e 6 81
e 6 88
e 6 91
e 6 113
e 6 135
e 6 166
e 6 178
e 7 8
e 7 9
e 7 12
e 7 19
e 7 20
e 7 21
e 7 22
e 7 23
e 7 30
e 7 40
e 7 41
e 7 53
e 7 59
e 7 60
e 7 61
e 7 67
e 7 69
e 7 87
e 7 89
e 7 90
e 7 103
e 7 111
e 7 112
e 7 145
e 7 165
e 8 10
e 8 13
e 8 19
e 8 20
e 8 21
e 8 22
e 8 23
e 8 31
e 8 40
e 8 41
e 8 54
e 8 57
e 8 59
e 8 60
e 8 61
e 8 63
e 8 68
e 8 70
e 8 88
e 8 89
e 8 91
e 8 113
e 8 145
e 8 166
e 9 10
e 9 12
e 9 24
e 9 25
e 9 26
e 9 27
e 9 28
e 9 29
e 9 30
e 9 43
e 9 44
e 9 53
e 9 64
e 9 65
e 9 66
e 9 67
e 9 69
e 9 87
e 9 90
e 9 103
e 9 111
e 9 112
e 9 165
e 9 191
e 10 13
e 10 24
e 10 25
e 10 26
e 10 27
e 10 28
e 10 29
e 10 31
e 10 43
e 10 44
e 10 54
e 10 57
e 10 63
e 10 64
e 10 65
e 10 66
e 10 68
e 10 70
e 10 88
e 10 91
e 10 113
e 10 166
e 10 191
e 11 30
e 11 31
e 11 39
e 11 42
e 11 45
e 11 46
e 11 47
e 11 48
e 11 49
e 11 50
e 11 51
e 11 58
e 11 62
e 11 71
e 11 72
e 11 86
e 11 104
e 11 105
e 11 114
e 11 133
e 11 164
e 11 177
e 11 204
e 12 13
e 12 30
e 12 32
e 12 33
e 12 34
e 12 35
e 12 36
e 12 52
e 12 53
e 12 67
e 12 69
e 12 73
e 12 74
e 12 75
e 12 87
e 12 90
e 12 103
e 12 106
e 12 111
e 12 112
e 12 152
e 12 165
e 12 193
e 13 31
e 13 32
e 13 33
e 13 34
e 13 35
e 13 36
e 13 52
e 13 54
e 13 57
e 13 63
e 13 68
e 13 70
e 13 73
e 13 74
e 13 75
e 13 88
e 13 91
e 13 106
e 13 113
e 13 152
e 13 166
e 13 193
e 14 15
e 14 16
e 14 17
e 14 18
e 14 20
e 14 25
e 14 37
e 14 38
e 14 47
e 14 55
e 14 56
e 14 77
e 14 81
e 14 83
e 14 97
e 14 116
e 14 120
e 14 129
e 14 135
e 14 138
e 14 141
e 14 178
e 14 186
e 15 16
e 15 17
e 15 18
e 15 21
e 15 26
e 15 33
e 15 37
e 15 38
e 15 48
e 15 55
e 15 56
e 15 81
e 15 84
e 15 93
e 15 98
e 15 99
e 15 130
e 15 135
e 15 139
e 15 159
e 15 178
e 15 187
e 16 17
e 16 18
e 16 22
e 16 27
e 16 34
e 16 37
e 16 38
e 16 49
e 16 55
e 16 56
e 16 78
e 16 81
e 16 94
e 16 100
e 16 117
e 16 131
e 16 135
e 16 140
e 16 142
e 16 178
e 16 200
e 17 18
e 17 23
e 17 28
e 17 35
e 17 37
e 17 38
e 17 50
e 17 55
e 17 56
e 17 79
e 17 81
e 17 101
e 17 118
e 17 121
e 17 132
e 17 135
e 17 160
e 17 178
e 17 188
e 17 201
e 18 29
e 18 36
e 18 37
e 18 38
e 18 51
e 18 55
e 18 56
e 18 80
e 18 81
e 18 85
e 18 95
e 18 102
e 18 122
e 18 135
e 18 143
e 18 161
e 18 178
e 18 189
e 18 202
e 19 20
e 19 21
e 19 22
e 19 23
e 19 24
e 19 32
e 19 40
e 19 41
e 19 59
e 19 60
e 19 61
e 19 76
e 19 82
e 19 89
e 19 92
e 19 96
e 19 115
e 19 119
e 19 128
e 19 137
e 19 145
e 19 185
e 19 199
e 20 21
e 20 22
e 20 23
e 20 25
e 20 40
e 20 41
e 20 47
e 20 59
e 20 60
e 20 61
e 20 77
e 20 83
e 20 89
e 20 97
e 20 116
e 20 120
e 20 129
e 20 138
e 20 141
e 20 145
e 20 186
e 21 22
e 21 23
e 21 26
e 21 33
e 21 40
e 21 41
e 21 48
e 21 59
e 21 60
e 21 61
e 21 84
e 21 89
e 21 93
e 21 98
e 21 99
e 21 130
e 21 139
e 21 145
e 21 159
e 21 187
e 22 23
e 22 27
e 22 34
e 22 40
e 22 41
e 22 49
e 22 59
e 22 60
e 22 61
e 22 78
e 22 89
e 22 94
e 22 100
e 22 117
e 22 131
e 22 140
e 22 142
e 22 145
e 22 200
e 23 28
e 23 35
e 23 40
e 23 41
e 23 50
e 23 59
e 23 60
e 23 61
e 23 79
e 23 89
e 23 101
e 23 118
e 23 121
e 23 132
e 23 145
e 23 160
e 23 188
e 23 201
e 24 25
e 24 26
e 24 27
e 24 28
e 24 29
e 24 32
e 24 43
e 24 44
e 24 64
e 24 65
e 24 66
e 24 76
e 24 82
e 24 92
e 24 96
e 24 115
e 24 119
e 24 128
e 24 137
e 24 185
e 24 191
e 24 199
e 25 26
e 25 27
e 25 28
e 25 29
e 25 43
e 25 44
e 25 47
e 25 64
e 25 65
e 25 66
e 25 77
e 25 83
e 25 97
e 25 116
e 25 120
e 25 129
e 25 138
e 25 141
e 25 186
e 25 191
e 26 27
e 26 28
e 26 29
e 26 33
e 26 43
e 26 44
e 26 48
e 26 64
e 26 65
e 26 66
e 26 84
e 26 93
e 26 98
e 26 99
e 26 130
e 26 139
e 26 159
e 26 187
e 26 191
e 27 28
e 27 29
e 27 34
e 27 43
e 27 44
e 27 49
e 27 64
e 27 65
e 27 66
e 27 78
e 27 94
e 27 100
e 27 117
e 27 131
e 27 140
e 27 142
e 27 191
e 27 200
e 28 29
e 28 35
e 28 43
e 28 44
e 28 50
e 28 64
e 28 65
e 28 66
e 28 79
e 28 101
e 28 118
e 28 121
e 28 132
e 28 160
e 28 188
e 28 191
e 28 201
e 29 36
e 29 43
e 29 44
e 29 51
e 29 64
e 29 65
e 29 66
e 29 80
e 29 85
e 29 95
e 29 102
e 29 122
e 29 143
e 29 161
e 29 189
e 29 191
e 29 202
e 30 31
e 30 47
e 30 48
e 30 49
e 30 50
e 30 51
e 30 53
e 30 67
e 30 69
e 30 72
e 30 87
e 30 90
e 30 103
e 30 104
e 30 105
e 30 111
e 30 112
e 30 133
e 30 165
e 30 177
e 30 204
e 31 47
e 31 48
e 31 49
e 31 50
e 31 51
e 31 54
e 31 57
e 31 63
e 31 68
e 31 70
e 31 72
e 31 88
e 31 91
e 31 104
e 31 105
e 31 113
e 31 133
e 31 166
e 31 177
e 31 204
e 32 33
e 32 34
e 32 35
e 32 36
e 32 52
e 32 73
e 32 74
e 32 75
e 32 76
e 32 82
e 32 92
e 32 96
e 32 106
e 32 115
e 32 119
e 32 128
e 32 137
e 32 152
e 32 185
e 32 193
e 32 199
e 33 34
e 33 35
e 33 36
e 33 48
e 33 52
e 33 73
e 33 74
e 33 75
e 33 84
e 33 93
e 33 98
e 33 99
e 33 106
e 33 130
e 33 139
e 33 152
e 33 159
e 33 187
e 33 193
e 34 35
e 34 36
e 34 49
e 34 52
e 34 73
e 34 74
e 34 75
e 34 78
e 34 94
e 34 100
e 34 106
e 34 117
e 34 131
e 34 140
e 34 142
e 34 152
e 34 193
e 34 200
e 35 36
e 35 50
e 35 52
e 35 73
e 35 74
e 35 75
e 35 79
e 35 101
e 35 106
e 35 118
e 35 121
e 35 132
e 35 152
e 35 160
e 35 188
e 35 193
e 35 201
e 36 51
e 36 52
e 36 73
e 36 74
e 36 75
e 36 80
e 36 85
e 36 95
e 36 102
e 36 106
e 36 122
e 36 143
e 36 152
e 36 161
e 36 189
e 36 193
e 36 202
e 37 38
e 37 40
e 37 43
e 37 55
e 37 56
e 37 81
e 37 107
e 37 109
e 37 123
e 37 124
e 37 126
e 37 135
e 37 144
e 37 157
e 37 178
e 37 182
e 37 203
e 38 41
e 38 44
e 38 52
e 38 55
e 38 56
e 38 72
e 38 81
e 38 108
e 38 110
e 38 125
e 38 127
e 38 135
e 38 151
e 38 158
e 38 178
e 38 183
e 39 42
e 39 45
e 39 46
e 39 57
e 39 58
e 39 62
e 39 71
e 39 82
e 39 83
e 39 84
e 39 85
e 39 86
e 39 109
e 39 110
e 39 114
e 39 136
e 39 155
e 39 156
e 39 164
e 39 195
e 40 41
e 40 43
e 40 59
e 40 60
e 40 61
e 40 89
e 40 107
e 40 109
e 40 123
e 40 124
e 40 126
e 40 144
e 40 145
e 40 157
e 40 182
e 40 203
e 41 44
e 41 52
e 41 59
e 41 60
e 41 61
e 41 72
e 41 89
e 41 108
e 41 110
e 41 125
e 41 127
e 41 145
e 41 151
e 41 158
e 41 183
e 42 45
e 42 46
e 42 58
e 42 62
e 42 63
e 42 71
e 42 86
e 42 92
e 42 93
e 42 94
e 42 95
e 42 114
e 42 123
e 42 146
e 42 147
e 42 164
e 42 170
e 42 171
e 42 211
e 43 44
e 43 64
e 43 65
e 43 66
e 43 107
e 43 109
e 43 123
e 43 124
e 43 126
e 43 144
e 43 157
e 43 182
e 43 191
e 43 203
e 44 52
e 44 64
e 44 65
e 44 66
e 44 72
e 44 108
e 44 110
e 44 125
e 44 127
e 44 151
e 44 158
e 44 183
e 44 191
e 45 46
e 45 58
e 45 62
e 45 67
e 45 68
e 45 71
e 45 86
e 45 96
e 45 97
e 45 98
e 45 114
e 45 124
e 45 125
e 45 148
e 45 164
e 45 172
e 45 173
e 45 212
e 46 58
e 46 62
e 46 69
e 46 70
e 46 71
e 46 86
e 46 99
e 46 100
e 46 101
e 46 102
e 46 114
e 46 126
e 46 127
e 46 149
e 46 150
e 46 164
e 46 174
e 47 48
e 47 49
e 47 50
e 47 51
e 47 72
e 47 77
e 47 83
e 47 97
e 47 104
e 47 105
e 47 116
e 47 120
e 47 129
e 47 133
e 47 138
e 47 141
e 47 177
e 47 186
e 47 204
e 48 49
e 48 50
e 48 51
e 48 72
e 48 84
e 48 93
e 48 98
e 48 99
e 48 104
e 48 105
e 48 130
e 48 133
e 48 139
e 48 159
e 48 177
e 48 187
e 48 204
e 49 50
e 49 51
e 49 72
e 49 78
e 49 94
e 49 100
e 49 104
e 49 105
e 49 117
e 49 131
e 49 133
e 49 140
e 49 142
e 49 177
e 49 200
e 49 204
e 50 51
e 50 72
e 50 79
e 50 101
e 50 104
e 50 105
e 50 118
e 50 121
e 50 132
e 50 133
e 50 160
e 50 177
e 50 188
e 50 201
e 50 204
e 51 72
e 51 80
e 51 85
e 51 95
e 51 102
e 51 104
e 51 105
e 51 122
e 51 133
e 51 143
e 51 161
e 51 177
e 51 189
e 51 202
e 51 204
e 52 72
e 52 73
e 52 74
e 52 75
e 52 106
e 52 108
e 52 110
e 52 125
e 52 127
e 52 151
e 52 152
e 52 158
e 52 183
e 52 193
e 53 54
e 53 67
e 53 69
e 53 76
e 53 77
e 53 78
e 53 79
e 53 80
e 53 87
e 53 90
e 53 103
e 53 107
e 53 108
e 53 111
e 53 112
e 53 134
e 53 153
e 53 154
e 53 165
e 53 194
e 54 57
e 54 63
e 54 68
e 54 70
e 54 76
e 54 77
e 54 78
e 54 79
e 54 80
e 54 88
e 54 91
e 54 107
e 54 108
e 54 113
e 54 134
e 54 153
e 54 154
e 54 166
e 54 194
e 55 56
e 55 59
e 55 64
e 55 73
e 55 81
e 55 135
e 55 149
e 55 162
e 55 167
e 55 175
e 55 178
e 55 179
e 55 180
e 55 198
e 56 60
e 56 65
e 56 74
e 56 81
e 56 104
e 56 135
e 56 136
e 56 146
e 56 148
e 56 168
e 56 178
e 56 181
e 56 209
e 57 63
e 57 68
e 57 70
e 57 82
e 57 83
e 57 84
e 57 85
e 57 88
e 57 91
e 57 109
e 57 110
e 57 113
e 57 136
e 57 155
e 57 156
e 57 166
e 57 195
e 58 62
e 58 71
e 58 86
e 58 87
e 58 88
e 58 114
e 58 115
e 58 116
e 58 117
e 58 118
e 58 144
e 58 162
e 58 163
e 58 164
e 58 184
e 59 60
e 59 61
e 59 64
e 59 73
e 59 89
e 59 145
e 59 149
e 59 162
e 59 167
e 59 175
e 59 179
e 59 180
e 59 198
e 60 61
e 60 65
e 60 74
e 60 89
e 60 104
e 60 136
e 60 145
e 60 146
e 60 148
e 60 168
e 60 181
e 60 209
e 61 66
e 61 75
e 61 89
e 61 105
e 61 134
e 61 145
e 61 147
e 61 150
e 61 163
e 61 169
e 61 176
e 61 210
e 62 71
e 62 86
e 62 90
e 62 91
e 62 114
e 62 119
e 62 120
e 62 121
e 62 122
e 62 164
e 62 167
e 62 168
e 62 169
e 62 190
e 63 68
e 63 70
e 63 88
e 63 91
e 63 92
e 63 93
e 63 94
e 63 95
e 63 113
e 63 123
e 63 146
e 63 147
e 63 166
e 63 170
e 63 171
e 63 211
e 64 65
e 64 66
e 64 73
e 64 149
e 64 162
e 64 167
e 64 175
e 64 179
e 64 180
e 64 191
e 64 198
e 65 66
e 65 74
e 65 104
e 65 136
e 65 146
e 65 148
e 65 168
e 65 181
e 65 191
e 65 209
e 66 75
e 66 105
e 66 134
e 66 147
e 66 150
e 66 163
e 66 169
e 66 176
e 66 191
e 66 210
e 67 68
e 67 69
e 67 87
e 67 90
e 67 96
e 67 97
e 67 98
e 67 103
e 67 111
e 67 112
e 67 124
e 67 125
e 67 148
e 67 165
e 67 172
e 67 173
e 67 212
e 68 70
e 68 88
e 68 91
e 68 96
e 68 97
e 68 98
e 68 113
e 68 124
e 68 125
e 68 148
e 68 166
e 68 172
e 68 173
e 68 212
e 69 70
e 69 87
e 69 90
e 69 99
e 69 100
e 69 101
e 69 102
e 69 103
e 69 111
e 69 112
e 69 126
e 69 127
e 69 149
e 69 150
e 69 165
e 69 174
e 70 88
e 70 91
e 70 99
e 70 100
e 70 101
e 70 102
e 70 113
e 70 126
e 70 127
e 70 149
e 70 150
e 70 166
e 70 174
e 71 86
e 71 103
e 71 114
e 71 128
e 71 129
e 71 130
e 71 131
e 71 132
e 71 151
e 71 164
e 71 175
e 71 176
e 71 192
e 72 104
e 72 105
e 72 108
e 72 110
e 72 125
e 72 127
e 72 133
e 72 151
e 72 158
e 72 177
e 72 183
e 72 204
e 73 74
e 73 75
e 73 106
e 73 149
e 73 152
e 73 162
e 73 167
e 73 175
e 73 179
e 73 180
e 73 193
e 73 198
e 74 75
e 74 104
e 74 106
e 74 136
e 74 146
e 74 148
e 74 152
e 74 168
e 74 181
e 74 193
e 74 209
e 75 105
e 75 106
e 75 134
e 75 147
e 75 150
e 75 152
e 75 163
e 75 169
e 75 176
e 75 193
e 75 210
e 76 77
e 76 78
e 76 79
e 76 80
e 76 82
e 76 92
e 76 96
e 76 107
e 76 108
e 76 115
e 76 119
e 76 128
e 76 134
e 76 137
e 76 153
e 76 154
e 76 185
e 76 194
e 76 199
e 77 78
e 77 79
e 77 80
e 77 83
e 77 97
e 77 107
e 77 108
e 77 116
e 77 120
e 77 129
e 77 134
e 77 138
e 77 141
e 77 153
e 77 154
e 77 186
e 77 194
e 78 79
e 78 80
e 78 94
e 78 100
e 78 107
e 78 108
e 78 117
e 78 131
e 78 134
e 78 140
e 78 142
e 78 153
e 78 154
e 78 194
e 78 200
e 79 80
e 79 101
e 79 107
e 79 108
e 79 118
e 79 121
e 79 132
e 79 134
e 79 153
e 79 154
e 79 160
e 79 188
e 79 194
e 79 201
e 80 85
e 80 95
e 80 102
e 80 107
e 80 108
e 80 122
e 80 134
e 80 143
e 80 153
e 80 154
e 80 161
e 80 189
e 80 194
e 80 202
e 81 135
e 81 153
e 81 155
e 81 170
e 81 172
e 81 174
e 81 178
e 81 184
e 81 192
e 81 197
e 81 205
e 82 83
e 82 84
e 82 85
e 82 92
e 82 96
e 82 109
e 82 110
e 82 115
e 82 119
e 82 128
e 82 136
e 82 137
e 82 155
e 82 156
e 82 185
e 82 195
e 82 199
e 83 84
e 83 85
e 83 97
e 83 109
e 83 110
e 83 116
e 83 120
e 83 129
e 83 136
e 83 138
e 83 141
e 83 155
e 83 156
e 83 186
e 83 195
e 84 85
e 84 93
e 84 98
e 84 99
e 84 109
e 84 110
e 84 130
e 84 136
e 84 139
e 84 155
e 84 156
e 84 159
e 84 187
e 84 195
e 85 95
e 85 102
e 85 109
e 85 110
e 85 122
e 85 136
e 85 143
e 85 155
e 85 156
e 85 161
e 85 189
e 85 195
e 85 202
e 86 111
e 86 114
e 86 137
e 86 138
e 86 139
e 86 140
e 86 157
e 86 164
e 86 179
e 86 196
e 86 207
e 87 88
e 87 90
e 87 103
e 87 111
e 87 112
e 87 115
e 87 116
e 87 117
e 87 118
e 87 144
e 87 162
e 87 163
e 87 165
e 87 184
e 88 91
e 88 113
e 88 115
e 88 116
e 88 117
e 88 118
e 88 144
e 88 162
e 88 163
e 88 166
e 88 184
e 89 106
e 89 133
e 89 145
e 89 154
e 89 156
e 89 171
e 89 173
e 89 190
e 89 196
e 89 206
e 90 91
e 90 103
e 90 111
e 90 112
e 90 119
e 90 120
e 90 121
e 90 122
e 90 165
e 90 167
e 90 168
e 90 169
e 90 190
e 91 113
e 91 119
e 91 120
e 91 121
e 91 122
e 91 166
e 91 167
e 91 168
e 91 169
e 91 190
e 92 93
e 92 94
e 92 95
e 92 96
e 92 115
e 92 119
e 92 123
e 92 128
e 92 137
e 92 146
e 92 147
e 92 170
e 92 171
e 92 185
e 92 199
e 92 211
e 93 94
e 93 95
e 93 98
e 93 99
e 93 123
e 93 130
e 93 139
e 93 146
e 93 147
e 93 159
e 93 170
e 93 171
e 93 187
e 93 211
e 94 95
e 94 100
e 94 117
e 94 123
e 94 131
e 94 140
e 94 142
e 94 146
e 94 147
e 94 170
e 94 171
e 94 200
e 94 211
e 95 102
e 95 122
e 95 123
e 95 143
e 95 146
e 95 147
e 95 161
e 95 170
e 95 171
e 95 189
e 95 202
e 95 211
e 96 97
e 96 98
e 96 115
e 96 119
e 96 124
e 96 125
e 96 128
e 96 137
e 96 148
e 96 172
e 96 173
e 96 185
e 96 199
e 96 212
e 97 98
e 97 116
e 97 120
e 97 124
e 97 125
e 97 129
e 97 138
e 97 141
e 97 148
e 97 172
e 97 173
e 97 186
e 97 212
e 98 99
e 98 124
e 98 125
e 98 130
e 98 139
e 98 148
e 98 159
e 98 172
e 98 173
e 98 187
e 98 212
e 99 100
e 99 101
e 99 102
e 99 126
e 99 127
e 99 130
e 99 139
e 99 149
e 99 150
e 99 159
e 99 174
e 99 187
e 100 101
e 100 102
e 100 117
e 100 126
e 100 127
e 100 131
e 100 140
e 100 142
e 100 149
e 100 150
e 100 174
e 100 200
e 101 102
e 101 118
e 101 121
e 101 126
e 101 127
e 101 132
e 101 149
e 101 150
e 101 160
e 101 174
e 101 188
e 101 201
e 102 122
e 102 126
e 102 127
e 102 143
e 102 149
e 102 150
e 102 161
e 102 174
e 102 189
e 102 202
e 103 111
e 103 112
e 103 128
e 103 129
e 103 130
e 103 131
e 103 132
e 103 151
e 103 165
e 103 175
e 103 176
e 103 192
e 104 105
e 104 133
e 104 136
e 104 146
e 104 148
e 104 168
e 104 177
e 104 181
e 104 204
e 104 209
e 105 133
e 105 134
e 105 147
e 105 150
e 105 163
e 105 169
e 105 176
e 105 177
e 105 204
e 105 210
e 106 133
e 106 152
e 106 154
e 106 156
e 106 171
e 106 173
e 106 190
e 106 193
e 106 196
e 106 206
e 107 108
e 107 109
e 107 123
e 107 124
e 107 126
e 107 134
e 107 144
e 107 153
e 107 154
e 107 157
e 107 182
e 107 194
e 107 203
e 108 110
e 108 125
e 108 127
e 108 134
e 108 151
e 108 153
e 108 154
e 108 158
e 108 183
e 108 194
e 109 110
e 109 123
e 109 124
e 109 126
e 109 136
e 109 144
e 109 155
e 109 156
e 109 157
e 109 182
e 109 195
e 109 203
e 110 125
e 110 127
e 110 136
e 110 151
e 110 155
e 110 156
e 110 158
e 110 183
e 110 195
e 111 112
e 111 137
e 111 138
e 111 139
e 111 140
e 111 157
e 111 165
e 111 179
e 111 196
e 111 207
e 112 113
e 112 141
e 112 142
e 112 143
e 112 158
e 112 165
e 112 180
e 112 181
e 112 197
e 112 208
e 113 141
e 113 142
e 113 143
e 113 158
e 113 166
e 113 180
e 113 181
e 113 197
e 113 208
e 114 159
e 114 160
e 114 161
e 114 164
e 114 182
e 114 183
e 114 198
e 114 205
e 114 206
e 115 116
e 115 117
e 115 118
e 115 119
e 115 128
e 115 137
e 115 144
e 115 162
e 115 163
e 115 184
e 115 185
e 115 199
e 116 117
e 116 118
e 116 120
e 116 129
e 116 138
e 116 141
e 116 144
e 116 162
e 116 163
e 116 184
e 116 186
e 117 118
e 117 131
e 117 140
e 117 142
e 117 144
e 117 162
e 117 163
e 117 184
e 117 200
e 118 121
e 118 132
e 118 144
e 118 160
e 118 162
e 118 163
e 118 184
e 118 188
e 118 201
e 119 120
e 119 121
e 119 122
e 119 128
e 119 137
e 119 167
e 119 168
e 119 169
e 119 185
e 119 190
e 119 199
e 120 121
e 120 122
e 120 129
e 120 138
e 120 141
e 120 167
e 120 168
e 120 169
e 120 186
e 120 190
e 121 122
e 121 132
e 121 160
e 121 167
e 121 168
e 121 169
e 121 188
e 121 190
e 121 201
e 122 143
e 122 161
e 122 167
e 122 168
e 122 169
e 122 189
e 122 190
e 122 202
e 123 124
e 123 126
e 123 144
e 123 146
e 123 147
e 123 157
e 123 170
e 123 171
e 123 182
e 123 203
e 123 211
e 124 125
e 124 126
e 124 144
e 124 148
e 124 157
e 124 172
e 124 173
e 124 182
e 124 203
e 124 212
e 125 127
e 125 148
e 125 151
e 125 158
e 125 172
e 125 173
e 125 183
e 125 212
e 126 127
e 126 144
e 126 149
e 126 150
e 126 157
e 126 174
e 126 182
e 126 203
e 127 149
e 127 150
e 127 151
e 127 158
e 127 174
e 127 183
e 128 129
e 128 130
e 128 131
e 128 132
e 128 137
e 128 151
e 128 175
e 128 176
e 128 185
e 128 192
e 128 199
e 129 130
e 129 131
e 129 132
e 129 138
e 129 141
e 129 151
e 129 175
e 129 176
e 129 186
e 129 192
e 130 131
e 130 132
e 130 139
e 130 151
e 130 159
e 130 175
e 130 176
e 130 187
e 130 192
e 131 132
e 131 140
e 131 142
e 131 151
e 131 175
e 131 176
e 131 192
e 131 200
e 132 151
e 132 160
e 132 175
e 132 176
e 132 188
e 132 192
e 132 201
e 133 154
e 133 156
e 133 171
e 133 173
e 133 177
e 133 190
e 133 196
e 133 204
e 133 206
e 134 147
e 134 150
e 134 153
e 134 154
e 134 163
e 134 169
e 134 176
e 134 194
e 134 210
e 135 145
e 135 152
e 135 177
e 135 178
e 135 194
e 135 195
e 135 207
e 135 208
e 136 146
e 136 148
e 136 155
e 136 156
e 136 168
e 136 181
e 136 195
e 136 209
e 137 138
e 137 139
e 137 140
e 137 157
e 137 179
e 137 185
e 137 196
e 137 199
e 137 207
e 138 139
e 138 140
e 138 141
e 138 157
e 138 179
e 138 186
e 138 196
e 138 207
e 139 140
e 139 157
e 139 159
e 139 179
e 139 187
e 139 196
e 139 207
e 140 142
e 140 157
e 140 179
e 140 196
e 140 200
e 140 207
e 141 142
e 141 143
e 141 158
e 141 180
e 141 181
e 141 186
e 141 197
e 141 208
e 142 143
e 142 158
e 142 180
e 142 181
e 142 197
e 142 200
e 142 208
e 143 158
e 143 161
e 143 180
e 143 181
e 143 189
e 143 197
e 143 202
e 143 208
e 144 157
e 144 162
e 144 163
e 144 182
e 144 184
e 144 203
e 145 152
e 145 177
e 145 194
e 145 195
e 145 207
e 145 208
e 146 147
e 146 148
e 146 168
e 146 170
e 146 171
e 146 181
e 146 209
e 146 211
e 147 150
e 147 163
e 147 169
e 147 170
e 147 171
e 147 176
e 147 210
e 147 211
e 148 168
e 148 172
e 148 173
e 148 181
e 148 209
e 148 212
e 149 150
e 149 162
e 149 167
e 149 174
e 149 175
e 149 179
e 149 180
e 149 198
e 150 163
e 150 169
e 150 174
e 150 176
e 150 210
e 151 158
e 151 175
e 151 176
e 151 183
e 151 192
e 152 177
e 152 193
e 152 194
e 152 195
e 152 207
e 152 208
e 153 154
e 153 155
e 153 170
e 153 172
e 153 174
e 153 184
e 153 192
e 153 194
e 153 197
e 153 205
e 154 156
e 154 171
e 154 173
e 154 190
e 154 194
e 154 196
e 154 206
e 155 156
e 155 170
e 155 172
e 155 174
e 155 184
e 155 192
e 155 195
e 155 197
e 155 205
e 156 171
e 156 173
e 156 190
e 156 195
e 156 196
e 156 206
e 157 179
e 157 182
e 157 196
e 157 203
e 157 207
e 158 180
e 158 181
e 158 183
e 158 197
e 158 208
e 159 160
e 159 161
e 159 182
e 159 183
e 159 187
e 159 198
e 159 205
e 159 206
e 160 161
e 160 182
e 160 183
e 160 188
e 160 198
e 160 201
e 160 205
e 160 206
e 161 182
e 161 183
e 161 189
e 161 198
e 161 202
e 161 205
e 161 206
e 162 163
e 162 167
e 162 175
e 162 179
e 162 180
e 162 184
e 162 198
e 163 169
e 163 176
e 163 184
e 163 210
e 164 199
e 164 200
e 164 201
e 164 202
e 164 209
e 164 210
e 165 166
e 165 185
e 165 186
e 165 187
e 165 188
e 165 189
e 165 203
e 166 185
e 166 186
e 166 187
e 166 188
e 166 189
e 166 203
e 167 168
e 167 169
e 167 175
e 167 179
e 167 180
e 167 190
e 167 198
e 168 169
e 168 181
e 168 190
e 168 209
e 169 176
e 169 190
e 169 210
e 170 171
e 170 172
e 170 174
e 170 184
e 170 192
e 170 197
e 170 205
e 170 211
e 171 173
e 171 190
e 171 196
e 171 206
e 171 211
e 172 173
e 172 174
e 172 184
e 172 192
e 172 197
e 172 205
e 172 212
e 173 190
e 173 196
e 173 206
e 173 212
e 174 184
e 174 192
e 174 197
e 174 205
e 175 176
e 175 179
e 175 180
e 175 192
e 175 198
e 176 192
e 176 210
e 177 194
e 177 195
e 177 204
e 177 207
e 177 208
e 178 191
e 178 193
e 178 204
e 178 211
e 178 212
e 179 180
e 179 196
e 179 198
e 179 207
e 180 181
e 180 197
e 180 198
e 180 208
e 181 197
e 181 208
e 181 209
e 182 183
e 182 198
e 182 203
e 182 205
e 182 206
e 183 198
e 183 205
e 183 206
e 184 192
e 184 197
e 184 205
e 185 186
e 185 187
e 185 188
e 185 189
e 185 199
e 185 203
e 186 187
e 186 188
e 186 189
e 186 203
e 187 188
e 187 189
e 187 203
e 188 189
e 188 201
e 188 203
e 189 202
e 189 203
e 190 196
e 190 206
e 191 193
e 191 204
e 191 211
e 191 212
e 192 197
e 192 205
e 193 204
e 193 211
e 193 212
e 194 195
e 194 207
e 194 208
e 195 207
e 195 208
e 196 206
e 196 207
e 197 205
e 197 208
e 198 205
e 198 206
e 199 200
e 199 201
e 199 202
e 199 209
e 199 210
e 200 201
e 200 202
e 200 209
e 200 210
e 201 202
e 201 209
e 201 210
e 202 209
e 202 210
e 204 211
e 204 212
e 205 206
e 207 208
e 209 210
e 211 212
